% demand
num_movements = 41;
loading_factor = [900, 1750, 1000, 1250, 1050, 1750, 1450, 1700, 1800, 1950, 1100, 1550, 1300, 1600, 1700, 1350, 1300, 900, 800, 1150, 800, 2000, 1200, 1400, 1300, 850, 1950, 850, 1650, 900, 1500, 850, 1350, 1100, 1900, 1750, 950, 1750, 2000, 1050, 1300];
pickup_time = [0, 0, 0, 0, 0, 0, 1, 1, 2, 2, 2, 2, 2, 2, 2, 3, 3, 3, 3, 4, 5, 5, 5, 5, 5, 5, 5, 5, 8, 8, 8, 8, 8, 8, 8, 10, 10, 10, 10, 10, 11];
delivery_time = [2, 2, 2, 2, 2, 2, 2, 2, 4, 3, 3, 5, 3, 5, 4, 5, 5, 4, 5, 5, 6, 7, 6, 10, 6, 6, 6, 7, 12, 11, 9, 9, 9, 10, 10, 11, 12, 11, 12, 11, 12];

% transporter definition
total_capacity = 11000;
num_decks = 4;
capacity = [3000, 3000, 1000, 4000];

% ways out of decks
num_ways_out = 2;
paths_out = array3d(decks, ways_out, decks, [
% ways out of deck d1
2, 4, 0, 0, 3, 4, 0, 0, 

% ways out of deck d2
4, 0, 0, 0, 0, 0, 0, 0,	

% ways out of deck d3
4, 0, 0, 0, 0, 0, 0, 0,	

% ways out of deck d4
0, 0, 0, 0,	0, 0, 0, 0,	

]);

